data/MCDM/NO_CORR/GEN_FROM_60/19_ITEMS_1000_GEN/K5019W17.KNP.mps
NAME          BLANK   
ROWS
 N  OBJROW
 L  R0000000
COLUMNS
    C0000000  OBJROW     -168.         R0000000  308.        
    C0000001  OBJROW     -451.         R0000000  998.        
    C0000002  OBJROW     -854.         R0000000  357.        
    C0000003  OBJROW     -918.         R0000000  595.        
    C0000004  OBJROW     -643.         R0000000  35.         
    C0000005  OBJROW     -448.         R0000000  200.        
    C0000006  OBJROW     -417.         R0000000  993.        
    C0000007  OBJROW     -115.         R0000000  254.        
    C0000008  OBJROW     -274.         R0000000  604.        
    C0000009  OBJROW     -617.         R0000000  77.         
    C0000010  OBJROW     -154.         R0000000  165.        
    C0000011  OBJROW     -199.         R0000000  613.        
    C0000012  OBJROW     -44.          R0000000  24.         
    C0000013  OBJROW     -543.         R0000000  51.         
    C0000014  OBJROW     -969.         R0000000  845.        
    C0000015  OBJROW     -304.         R0000000  895.        
    C0000016  OBJROW     -507.         R0000000  642.        
    C0000017  OBJROW     -139.         R0000000  480.        
    C0000018  OBJROW     -667.         R0000000  79.         
RHS
    RHS       R0000000  13735.      
BOUNDS
 BV BOUND     C0000000  1.          
 BV BOUND     C0000001  1.          
 BV BOUND     C0000002  1.          
 BV BOUND     C0000003  1.          
 BV BOUND     C0000004  1.          
 BV BOUND     C0000005  1.          
 BV BOUND     C0000006  1.          
 BV BOUND     C0000007  1.          
 BV BOUND     C0000008  1.          
 BV BOUND     C0000009  1.          
 BV BOUND     C0000010  1.          
 BV BOUND     C0000011  1.          
 BV BOUND     C0000012  1.          
 BV BOUND     C0000013  1.          
 BV BOUND     C0000014  1.          
 BV BOUND     C0000015  1.          
 BV BOUND     C0000016  1.          
 BV BOUND     C0000017  1.          
 BV BOUND     C0000018  1.          
ENDATA
