data/MCDM/NO_CORR/GEN_FROM_60/19_ITEMS_1000_GEN/K5019W17.KNP.txt
N 19
M 20
LC 19
LC 20
LC 21
LC 22
LC 23
LC 24
LC 25
LC 26
LC 27
LC 28
LC 29
LC 30
LC 31
LC 32
LC 33
LC 34
LC 35
LC 36
LC 37
LR 1
LR 2
LR 3
LR 4
LR 5
LR 6
LR 7
LR 8
LR 9
LR 10
LR 11
LR 12
LR 13
LR 14
LR 15
LR 16
LR 17
LR 18
LR 19
LR 20
LO -168
LO -451
LO -854
LO -918
LO -643
LO -448
LO -417
LO -115
LO -274
LO -617
LO -154
LO -199
LO -44
LO -543
LO -969
LO -304
LO -507
LO -139
LO -667
OS 1
IC 156
IC 390
IC 572
IC 133
IC 231
IC 763
IC 323
IC 873
IC 711
IC 364
IC 39
IC 940
IC 449
IC 552
IC 968
IC 8
IC 427
IC 149
IC 438
IB 4243
